row=10;
column=10;
Board=[|2,0,0,8,0,0,0,3,4,1|0,1,0,0,0,10,0,5,0,6|3,2,0,10,0,4,1,6,8,7|0,6,1,0,3,0,7,2,0,0|0,0,3,1,0,2,6,10,5,9|4,0,0,0,8,0,10,7,6,0|0,5,0,6,7,3,2,0,9,0|5,4,10,7,2,0,8,0,0,3|0,3,0,0,0,5,9,0,7,8|6,10,0,0,0,0,0,4,2,5|];
OE=[|0,1,0,0,0,1,1,1,0,1|0,1,1,0,1,0,0,1,1,0|1,0,1,0,1,0,1,0,0,1|1,0,1,1,1,0,1,0,0,0|1,0,1,1,0,0,0,0,1,1|0,1,1,1,0,1,0,1,0,0|1,1,0,0,1,1,0,0,1,0|1,0,0,1,0,0,0,1,1,1|0,1,0,0,0,1,1,1,1,0|0,0,0,1,1,1,1,0,0,1|];
